CMPL model generation - running

CMPL version: 1.11.0
Authors: Thomas Schleiff, Mike Steglich
Distributed under the GPLv3 

create model instance ...
write model instance ...
CMPL model generation - finished

Solver - running


Welcome to IBM(R) ILOG(R) CPLEX(R) Interactive Optimizer 12.7.1.0
  with Simplex, Mixed Integer & Barrier Optimizers
5725-A06 5725-A29 5724-Y48 5724-Y49 5724-Y54 5724-Y55 5655-Y21
Copyright IBM Corp. 1988, 2017.  All Rights Reserved.

Type 'help' for a list of available commands.
Type 'help' followed by a command name for more
information on commands.

CPLEX> Specified objective sense: MINIMIZE
Selected objective  name:  line[1]
Selected RHS        name:  RHS
Selected bound      name:  BOUND
Problem '/tmp/cmpl.T23366.mps' read.
Read time = 0.09 sec. (10.11 ticks)
CPLEX> CPXPARAM_Read_APIEncoding                        "UTF-8"
Tried aggregator 3 times.
MIP Presolve eliminated 24116 rows and 37787 columns.
MIP Presolve modified 425 coefficients.
Aggregator did 694 substitutions.
Reduced MIP has 3112 rows, 3974 columns, and 11790 nonzeros.
Reduced MIP has 3764 binaries, 0 generals, 0 SOSs, and 0 indicators.
Presolve time = 0.10 sec. (49.92 ticks)
Found incumbent of value 394.922550 after 0.15 sec. (69.22 ticks)
Probing fixed 6 vars, tightened 0 bounds.
Probing time = 0.01 sec. (4.99 ticks)
Tried aggregator 1 time.
MIP Presolve eliminated 0 rows and 6 columns.
MIP Presolve modified 31 coefficients.
Reduced MIP has 3112 rows, 3968 columns, and 11778 nonzeros.
Reduced MIP has 3968 binaries, 0 generals, 0 SOSs, and 0 indicators.
Presolve time = 0.01 sec. (10.01 ticks)
Probing time = 0.01 sec. (2.82 ticks)
Clique table members: 6571.
MIP emphasis: balance optimality and feasibility.
MIP search method: dynamic search.
Parallel mode: none, using 1 thread.
Root relaxation solution time = 0.00 sec. (5.29 ticks)

        Nodes                                         Cuts/
   Node  Left     Objective  IInf  Best Integer    Best Bound    ItCnt     Gap

*     0+    0                          394.9226      -38.1805           109.67%
      0     0       10.8977    19      394.9226       10.8977       68   97.24%
*     0+    0                           56.2326       10.8977            80.62%
*     0+    0                           11.3320       10.8977             3.83%
      0     0        cutoff             11.3320                     68    0.00%
Elapsed time = 0.21 sec. (109.42 ticks, tree = 0.01 MB, solutions = 3)

Root node processing (before b&c):
  Real time             =    0.21 sec. (111.25 ticks)
Sequential b&c:
  Real time             =    0.00 sec. (0.00 ticks)
                          ------------
Total (root+branch&cut) =    0.21 sec. (111.25 ticks)

Solution pool: 3 solutions saved.

MIP - Integer optimal solution:  Objective =  1.1332023000e+01
Solution time =    0.21 sec.  Iterations = 68  Nodes = 0
Deterministic time = 111.37 ticks  (528.54 ticks/sec)

CPLEX> Incumbent solution written to file '/tmp/cmpl.T23366.gsol'.
CPLEX> 
CMPL: Time used for model generation: 1 seconds
CMPL: Time used for solving the model: 1 seconds


Solution written to ASCII file: results/output_generated_conf_0/2016-05-02-5/fair-nonlinear.sol

Solver - finished
